28 6 181 44 110 95 145 66 64 30 
195 40 152 180 51 198 91 55 70 
163 47 131 187 113 191 144 73 19 185 
54 9 143 56 38 74 114 50 126 141 
147 53 129 137 17 8 60 120 175 
169 15 196 98 119 27 41 81 93 193 83 
153 124 43 69 176 80 154 97 
37 12 45 151 109 94 101 125 115 121 146 
140 59 16 112 189 192 107 13 76 
92 165 108 128 168 160 86 87 123 157 
170 164 35 186 122 79 33 36 
172 149 62 159 58 134 174 11 39 148 
88 127 188 29 139 21 166 158 
199 84 20 10 77 116 178 96 
4 24 14 25 138 90 135 34 1 67 
7 167 68 183 184 22 194 82 2 75 
142 49 162 63 132 78 171 130 150 71 
100 182 57 161 72 52 106 
177 85 99 23 117 
156 179 200 3 136 
48 102 18 190 61 111 
42 26 5 197 46 
133 31 173 
155 118 105 
89 32 
103 104 
65 

